CPXPARAM_Read_DataCheck                          1
Found incumbent of value 0.000000 after 0.00 sec. (0.08 ticks)
Tried aggregator 1 time.
MIP Presolve modified 1 coefficients.
Reduced MIP has 333 rows, 3010 columns, and 15034 nonzeros.
Reduced MIP has 3010 binaries, 0 generals, 0 SOSs, and 0 indicators.
Presolve time = 0.00 sec. (5.72 ticks)
Tried aggregator 1 time.
Reduced MIP has 333 rows, 3010 columns, and 15034 nonzeros.
Reduced MIP has 3010 binaries, 0 generals, 0 SOSs, and 0 indicators.
Presolve time = 0.00 sec. (6.84 ticks)
Probing time = 0.02 sec. (3.78 ticks)
Clique table members: 10005.
MIP emphasis: balance optimality and feasibility.
MIP search method: dynamic search.
Parallel mode: deterministic, using up to 4 threads.
Root relaxation solution time = 0.02 sec. (15.98 ticks)

        Nodes                                         Cuts/
   Node  Left     Objective  IInf  Best Integer    Best Bound    ItCnt     Gap

*     0+    0                            0.0000    18389.0000              --- 
*     0+    0                         2751.0000    18389.0000           568.45%
      0     0     5404.2167    10     2751.0000     5404.2167      570   96.45%
*     0+    0                         3803.0000     5404.2167            42.10%
      0     0     4551.6821   112     3803.0000     Cuts: 183      983   19.69%
      0     0     4265.7163   374     3803.0000     Cuts: 183     1339   12.17%
*     0+    0                         4029.0000     4265.7163             5.88%
      0     0     4150.7344   519     4029.0000     Cuts: 183     1656    3.02%
      0     0        cutoff           4029.0000     4029.0000     1992    0.00%
Elapsed time = 0.75 sec. (385.19 ticks, tree = 0.01 MB, solutions = 4)

Clique cuts applied:  489
Cover cuts applied:  9
Implied bound cuts applied:  7
Mixed integer rounding cuts applied:  26
Zero-half cuts applied:  9

Root node processing (before b&c):
  Real time             =    0.75 sec. (385.44 ticks)
Parallel b&c, 4 threads:
  Real time             =    0.00 sec. (0.00 ticks)
  Sync time (average)   =    0.00 sec.
  Wait time (average)   =    0.00 sec.
                          ------------
Total (root+branch&cut) =    0.75 sec. (385.44 ticks)
